c uprop, v00.0, 
c reading from data/prog908.c.cnf
c done reading: 0.003079
p cnf 118 493
-60 -65 0
60 65 0
-67 -73 0
67 73 0
-75 -78 0
75 78 0
-70 -80 0
70 80 0
-63 -82 0
63 82 0
60 -84 0
-60 84 0
-67 86 0
67 -86 0
67 -86 -87 0
-86 -87 0
-67 86 87 0
86 87 0
57 -75 0
57 -75 -86 0
57 -86 0
-57 75 86 0
-56 -57 75 0
-56 -57 86 0
56 57 -75 0
56 57 0
56 57 -86 0
56 -75 -86 0
55 -60 -80 0
55 -57 -80 0
55 -57 -60 0
-55 60 80 0
-55 57 80 0
-55 57 60 0
-54 -55 80 0
-54 -55 60 0
-54 -55 57 0
54 55 -80 0
54 55 -60 0
54 55 -57 0
54 -57 -60 -80 0
-54 57 60 80 0
53 -63 -67 0
53 -55 -63 0
53 -55 -67 0
-53 63 67 0
-53 55 63 0
-53 55 67 0
-52 -53 63 0
-52 -53 67 0
-52 -53 55 0
52 53 -63 0
52 53 -67 0
52 53 -55 0
52 -55 -63 -67 0
-52 55 63 67 0
-51 75 0
-51 53 0
51 -53 -75 0
-50 -53 -75 0
-50 53 75 0
50 53 -75 0
50 -53 75 0
-49 80 0
-49 51 0
49 -51 -80 0
-48 -51 -80 0
-48 51 80 0
48 51 -80 0
48 -51 80 0
-47 63 0
-47 49 0
47 -49 -63 0
-49 -58 -63 0
49 -58 63 0
49 58 -63 0
-49 58 63 0
-68 87 0
68 -87 0
-56 76 0
56 -76 0
56 -76 -81 0
-76 -81 0
-56 76 81 0
76 81 0
-54 61 0
-54 61 -76 0
61 -76 0
54 -61 76 0
54 -61 -88 0
-61 76 -88 0
-54 61 88 0
61 88 0
61 -76 88 0
-54 -76 88 0
-52 -60 91 0
-52 -61 91 0
-60 -61 91 0
52 60 -91 0
52 61 -91 0
60 61 -91 0
52 -91 -94 0
60 -91 -94 0
61 -91 -94 0
-52 91 94 0
-60 91 94 0
-61 91 94 0
-52 -60 -61 94 0
52 60 61 -94 0
-50 -67 97 0
-50 -91 97 0
-67 -91 97 0
50 67 -97 0
50 91 -97 0
67 91 -97 0
50 -97 -100 0
67 -97 -100 0
91 -97 -100 0
-50 97 100 0
-67 97 100 0
-91 97 100 0
-50 -67 -91 100 0
50 67 91 -100 0
-48 -75 101 0
-48 -97 101 0
-75 -97 101 0
48 75 -101 0
48 97 -101 0
75 97 -101 0
48 -101 -102 0
75 -101 -102 0
97 -101 -102 0
-48 101 102 0
-75 101 102 0
-97 101 102 0
-48 -75 -97 102 0
48 75 97 -102 0
-58 -80 103 0
-58 -101 103 0
-80 -101 103 0
58 80 -103 0
58 101 -103 0
80 101 -103 0
58 -103 -104 0
80 -103 -104 0
101 -103 -104 0
-58 103 104 0
-80 103 104 0
-101 103 104 0
-58 -80 -101 104 0
58 80 101 -104 0
-47 -63 105 0
-47 -103 105 0
-63 -103 105 0
47 63 -105 0
47 103 -105 0
63 103 -105 0
47 -105 -106 0
63 -105 -106 0
103 -105 -106 0
-47 105 106 0
-63 105 106 0
-103 105 106 0
-47 -63 -103 106 0
47 63 103 -106 0
-84 -107 0
84 107 0
-68 -108 0
68 108 0
-81 -109 0
81 109 0
-88 -110 0
88 110 0
-94 -111 0
94 111 0
-100 -112 0
100 112 0
-102 -113 0
102 113 0
-104 -114 0
104 114 0
-106 -115 0
106 115 0
-105 -116 0
105 116 0
-71 -90 0
-71 -93 0
71 90 93 0
90 93 -117 0
-90 -93 -117 0
-90 93 117 0
90 -93 117 0
71 -83 0
-83 -96 0
-71 83 96 0
-71 96 -118 0
71 -96 -118 0
71 96 118 0
-71 -96 118 0
83 -85 0
-85 -99 0
-83 85 99 0
-46 -83 99 0
-46 83 -99 0
46 83 99 0
46 -83 -99 0
-45 85 0
-44 -45 0
44 45 -85 0
-42 44 -85 0
-42 -44 85 0
42 44 85 0
42 -44 -85 0
-41 45 0
-40 -41 0
40 41 -45 0
-38 40 -45 0
-38 -40 45 0
38 40 45 0
38 -40 -45 0
-37 41 0
-36 -37 0
36 37 -41 0
-34 36 -41 0
-34 -36 41 0
34 36 41 0
34 -36 -41 0
-33 37 0
-32 -33 0
32 33 -37 0
-30 32 -37 0
-30 -32 37 0
30 32 37 0
30 -32 -37 0
-29 96 0
-29 90 0
29 -90 -96 0
-28 -90 -96 0
-28 90 96 0
28 90 -96 0
28 -90 96 0
27 -93 -99 0
27 -29 -99 0
27 -29 -93 0
-27 93 99 0
-27 29 99 0
-27 29 93 0
-26 -27 99 0
-26 -27 93 0
-26 -27 29 0
26 27 -99 0
26 27 -93 0
26 27 -29 0
26 -29 -93 -99 0
-26 29 93 99 0
25 -44 -96 0
25 -27 -44 0
25 -27 -96 0
-25 44 96 0
-25 27 44 0
-25 27 96 0
-24 -25 44 0
-24 -25 96 0
-24 -25 27 0
24 25 -44 0
24 25 -96 0
24 25 -27 0
24 -27 -44 -96 0
-24 27 44 96 0
23 -40 -99 0
23 -25 -40 0
23 -25 -99 0
-23 40 99 0
-23 25 40 0
-23 25 99 0
-22 -23 40 0
-22 -23 99 0
-22 -23 25 0
22 23 -40 0
22 23 -99 0
22 23 -25 0
22 -25 -40 -99 0
-22 25 40 99 0
21 -36 -44 0
21 -23 -36 0
21 -23 -44 0
-21 36 44 0
-21 23 36 0
-21 23 44 0
-20 -21 36 0
-20 -21 44 0
-20 -21 23 0
20 21 -36 0
20 21 -44 0
20 21 -23 0
20 -23 -36 -44 0
-20 23 36 44 0
19 -32 -40 0
19 -21 -32 0
19 -21 -40 0
-19 32 40 0
-19 21 32 0
-19 21 40 0
-18 -19 32 0
-18 -19 40 0
-18 -19 21 0
18 19 -32 0
18 19 -40 0
18 19 -21 0
18 -21 -32 -40 0
-18 21 32 40 0
-17 36 0
-17 19 0
17 -19 -36 0
-16 -19 -36 0
-16 19 36 0
16 19 -36 0
16 -19 36 0
32 -59 0
17 -59 0
-17 -32 59 0
-17 -32 -66 0
17 32 -66 0
17 -32 66 0
-17 32 66 0
-74 -90 0
-74 -93 0
74 90 93 0
-79 90 93 0
-79 -90 -93 0
79 -90 93 0
79 90 -93 0
-62 74 0
-28 -62 0
28 62 -74 0
28 -74 -89 0
-28 74 -89 0
28 74 89 0
-28 -74 89 0
62 -92 0
-26 -92 0
26 -62 92 0
26 -62 -95 0
-26 62 -95 0
26 62 95 0
-26 -62 95 0
92 -98 0
-24 -98 0
24 -92 98 0
24 -43 -92 0
-24 -43 92 0
24 43 92 0
-24 43 -92 0
-39 98 0
-22 -39 0
22 39 -98 0
22 -35 -98 0
-22 -35 98 0
22 35 98 0
-22 35 -98 0
-31 39 0
-20 -31 0
20 31 -39 0
-15 20 -39 0
-15 -20 39 0
15 20 39 0
15 -20 -39 0
-14 31 0
-14 -18 0
14 18 -31 0
-13 18 -31 0
-13 -18 31 0
13 18 31 0
13 -18 -31 0
-12 14 0
-12 -16 0
12 -14 16 0
-11 -14 16 0
-11 14 -16 0
11 14 16 0
11 -14 -16 0
-10 12 0
-10 -66 0
10 -12 66 0
-9 -12 66 0
-9 12 -66 0
9 12 66 0
9 -12 -66 0
-8 10 0
-8 -59 0
8 -10 59 0
-7 -10 59 0
-7 10 -59 0
7 10 59 0
7 -10 -59 0
-6 84 0
-6 90 0
6 -84 -90 0
-84 -90 0
84 90 0
5 -68 -93 0
5 -6 -68 0
5 -6 -93 0
-5 68 93 0
-5 6 68 0
-5 6 93 0
5 -68 0
5 -93 0
5 -6 0
-6 -68 -93 0
4 -28 -81 0
4 -5 -81 0
4 -5 -28 0
-4 28 81 0
-4 5 81 0
-4 5 28 0
-4 81 0
-4 28 0
-4 5 0
5 28 81 0
3 -26 -88 0
3 -4 -88 0
3 -4 -26 0
-3 26 88 0
-3 4 88 0
-3 4 26 0
3 -88 0
3 -26 0
3 -4 0
-4 -26 -88 0
2 -24 -94 0
2 -3 -94 0
2 -3 -24 0
-2 24 94 0
-2 3 94 0
-2 3 24 0
-2 94 0
-2 24 0
-2 3 0
3 24 94 0
1 -22 -100 0
1 -2 -100 0
1 -2 -22 0
-1 22 100 0
-1 2 100 0
-1 2 22 0
1 -100 0
1 -22 0
1 -2 0
-2 -22 -100 0
-20 64 -102 0
-1 64 -102 0
-1 -20 64 0
20 -64 102 0
1 -64 102 0
1 20 -64 0
64 -102 0
-20 64 0
-1 64 0
-1 -20 -102 0
-18 72 -104 0
-64 72 -104 0
-18 -64 72 0
18 -72 104 0
64 -72 104 0
18 64 -72 0
72 -104 0
-18 72 0
-64 72 0
-18 -64 -104 0
-16 77 -106 0
-72 77 -106 0
-16 -72 77 0
16 -77 106 0
72 -77 106 0
16 72 -77 0
77 -106 0
-16 77 0
-72 77 0
-16 -72 -106 0
-66 69 -105 0
69 -77 -105 0
-66 69 -77 0
66 -69 105 0
-69 77 105 0
66 -69 77 0
69 -105 0
-66 69 0
69 -77 0
-66 -77 -105 0
-59 -69 0
-59 69 0
59 -69 0
